--Link1--
%chk=molecule
#HF/6-31G* SCF=tight Test Pop=MK iop(6/33=2) iop(6/42=6) opt
# iop(6/50=1)

remark line goes here

0   1
    C    7.8810000000       23.0900000000       21.1060000000     
    C    8.1780000000       24.0820000000       22.2260000000     
    C    8.3080000000       25.4830000000       21.7090000000     
    O    9.0360000000       26.3100000000       22.2660000000     
    C    7.5520000000       25.8150000000       20.5000000000     
    C    6.7530000000       24.9150000000       19.8600000000     
    C    5.8840000000       25.3890000000       18.7190000000     
    C    5.9400000000       24.4830000000       17.4980000000     
    C    5.6900000000       23.0330000000       17.8750000000     
    C    6.6910000000       22.5750000000       18.9510000000     
    C    6.6730000000       23.4440000000       20.2330000000     
    C    6.5410000000       21.0680000000       19.2440000000     
    C    6.5900000000       20.1780000000       17.9820000000     
    C    5.6030000000       20.6610000000       16.9210000000     
    C    5.8460000000       22.1350000000       16.6470000000     
    C    5.0220000000       22.4430000000       15.3960000000     
    C    5.2230000000       21.1740000000       14.5630000000     
    C    5.8000000000       20.0910000000       15.5050000000     
    C    4.1510000000       20.3710000000       17.3790000000     
    C    5.3970000000       23.2170000000       21.0510000000     
    C    5.1850000000       18.7250000000       15.3310000000     
    O    4.1320000000       18.5920000000       14.7220000000     
    C    5.8740000000       17.5600000000       15.9460000000     
    H    8.7590000000       23.0340000000       20.4620000000     
    H    7.7130000000       22.1080000000       21.5490000000     
    H    7.3660000000       24.0480000000       22.9520000000     
    H    9.1080000000       23.7960000000       22.7180000000     
    H    7.6310000000       26.8150000000       20.0990000000     
    H    4.8520000000       25.4350000000       19.0670000000     
    H    6.2020000000       26.3900000000       18.4280000000     
    H    5.1790000000       24.8010000000       16.7850000000     
    H    6.9230000000       24.5680000000       17.0340000000     
    H    4.6770000000       22.9340000000       18.2640000000     
    H    7.6820000000       22.7010000000       18.5150000000     
    H    7.3500000000       20.7650000000       19.9090000000     
    H    5.5910000000       20.9030000000       19.7520000000     
    H    7.5980000000       20.2060000000       17.5680000000     
    H    6.3450000000       19.1520000000       18.2580000000     
    H    6.8910000000       22.2160000000       16.3460000000     
    H    3.9710000000       22.5930000000       15.6410000000     
    H    5.4240000000       23.3120000000       14.8750000000     
    H    4.2690000000       20.8420000000       14.1530000000     
    H    5.9250000000       21.3710000000       13.7530000000     
    H    6.8700000000       20.0100000000       15.3160000000     
    H    4.5270000000       23.4650000000       20.4440000000     
    H    5.4150000000       23.8530000000       21.9360000000     
    H    5.3420000000       22.1720000000       21.3560000000     
    H    3.9990000000       20.7700000000       18.3820000000     
    H    3.4520000000       20.8440000000       16.6900000000     
    H    3.9810000000       19.2940000000       17.3870000000     
    H    5.6910000000       16.6700000000       15.3440000000     
    H    6.9460000000       17.7540000000       15.9900000000     
    H    5.4910000000       17.4020000000       16.9540000000     

str.gesp

str.gesp


